500
1000
266
265
265
265
264
263
262
260
260
260
259
259
258
258
258
257
257
256
256
255
253
253
252
252
252
252
252
251
251
250
249
249
248
247
246
246
246
246
245
244
244
244
243
243
242
241
240
237
237
237
237
236
236
235
233
233
232
232
230
229
228
228
228
228
228
228
227
226
226
225
225
225
225
224
224
224
224
224
224
223
222
222
222
221
221
219
219
219
219
219
218
218
218
216
215
215
215
215
215
214
214
214
214
214
213
213
212
212
212
212
209
209
209
208
208
208
208
207
207
207
207
206
205
205
205
205
204
204
203
203
202
202
201
200
199
199
199
198
197
197
197
196
195
195
194
194
193
193
192
192
191
191
190
190
189
189
189
189
188
188
187
186
186
186
185
185
185
184
183
183
183
183
182
182
182
181
181
180
180
179
179
178
178
178
177
176
176
175
175
173
173
172
171
171
170
170
169
169
169
168
168
168
167
165
165
165
164
164
164
163
163
163
162
161
161
161
160
160
159
159
159
158
157
156
155
155
155
155
155
155
155
154
154
154
154
154
153
153
153
153
152
152
152
151
151
151
150
150
150
150
150
150
149
149
148
147
146
146
145
144
144
143
143
143
143
143
141
141
141
141
140
140
140
139
139
139
139
139
138
136
136
135
135
134
134
132
131
129
129
129
129
129
129
128
127
127
126
126
126
125
125
125
125
125
124
124
123
122
122
121
121
121
120
120
120
120
119
119
118
117
116
116
116
116
115
115
115
115
114
112
112
111
111
110
108
107
106
105
105
104
104
104
102
102
101
101
101
101
100
100
100
99
99
98
97
97
97
97
95
95
94
94
93
93
92
92
92
92
92
91
91
90
89
89
89
88
88
88
88
87
86
86
85
84
83
82
81
81
80
79
78
77
77
77
77
77
77
76
75
74
74
73
73
73
73
72
72
72
72
72
72
72
72
72
71
69
69
68
67
67
67
66
66
65
65
65
65
64
63
63
61
61
60
58
56
56
55
54
53
52
52
51
50
50
50
49
48
47
47
47
46
46
45
44
43
43
42
42
41
40
40
40
39
39
35
35
34
33
33
32
32
32
32
31
31
29
29
28
28
28
27
27
26
26
26
25
25
25
24
23
22
19
19
19
19
18
17
17
16
16
